p cnf 1130
-17 -353
-18 -356
-19 -359
-20 -362
-21 -365
-22 -368
-23 -371
-24 -374
-25 -377
-26 -380
-27 -383
-28 -386
-29 -389
-30 -392
-31 -395
-32 -398
-33 399
-34 400
-35 401
-36 402
-37 403
-38 404
-39 405
-40 406
-41 407
-42 -18
-42 -19
18 19 42
-43 -20
-43 -21
20 21 43
-44 -22
-44 -23
22 23 44
-45 -24
-45 -25
24 25 45
-46 -26
-46 -27
26 27 46
-47 -28
-47 -29
28 29 47
-48 -30
-48 -31
30 31 48
-49 -32
-49 -33
32 33 49
-50 -34
-50 -35
34 35 50
-51 -36
-51 -37
36 37 51
-52 -38
-52 -39
38 39 52
-53 -40
-53 -41
40 41 53
-54 42
-54 43
-42 -43 54
-55 44
-55 45
-44 -45 55
-56 46
-56 47
-46 -47 56
-57 48
-57 49
-48 -49 57
-58 50
-58 51
-50 -51 58
-59 52
-59 53
-52 -53 59
-60 54
-60 55
-54 -55 60
-61 56
-61 57
-56 -57 61
-62 58
-62 59
-58 -59 62
-63 60
-63 61
-60 -61 63
-64 62
-64 63
-62 -63 64
-65 -17
-65 18
17 -18 65
-66 17
-66 -18
-17 18 66
-67 -65
-67 -66
65 66 67
-68 17
-68 18
-17 -18 68
-69 -17
-69 -67
17 67 69
-70 17
-70 67
-17 -67 70
-71 -69
-71 -70
69 70 71
-72 17
-72 -67
-17 67 72
-73 -68
-73 -72
68 72 73
-74 -18
-74 19
18 -19 74
-75 18
-75 -19
-18 19 75
-76 -74
-76 -75
74 75 76
-77 18
-77 19
-18 -19 77
-78 73
-78 -76
-73 76 78
-79 -73
-79 76
73 -76 79
-80 -78
-80 -79
78 79 80
-81 -73
-81 -76
73 76 81
-82 -77
-82 -81
77 81 82
-83 -19
-83 20
19 -20 83
-84 19
-84 -20
-19 20 84
-85 -83
-85 -84
83 84 85
-86 19
-86 20
-19 -20 86
-87 82
-87 -85
-82 85 87
-88 -82
-88 85
82 -85 88
-89 -87
-89 -88
87 88 89
-90 -82
-90 -85
82 85 90
-91 -86
-91 -90
86 90 91
-92 -20
-92 21
20 -21 92
-93 20
-93 -21
-20 21 93
-94 -92
-94 -93
92 93 94
-95 20
-95 21
-20 -21 95
-96 91
-96 -94
-91 94 96
-97 -91
-97 94
91 -94 97
-98 -96
-98 -97
96 97 98
-99 -91
-99 -94
91 94 99
-100 -95
-100 -99
95 99 100
-101 -21
-101 22
21 -22 101
-102 21
-102 -22
-21 22 102
-103 -101
-103 -102
101 102 103
-104 21
-104 22
-21 -22 104
-105 100
-105 -103
-100 103 105
-106 -100
-106 103
100 -103 106
-107 -105
-107 -106
105 106 107
-108 -100
-108 -103
100 103 108
-109 -104
-109 -108
104 108 109
-110 -22
-110 23
22 -23 110
-111 22
-111 -23
-22 23 111
-112 -110
-112 -111
110 111 112
-113 22
-113 23
-22 -23 113
-114 109
-114 -112
-109 112 114
-115 -109
-115 112
109 -112 115
-116 -114
-116 -115
114 115 116
-117 -109
-117 -112
109 112 117
-118 -113
-118 -117
113 117 118
-119 -23
-119 24
23 -24 119
-120 23
-120 -24
-23 24 120
-121 -119
-121 -120
119 120 121
-122 23
-122 24
-23 -24 122
-123 118
-123 -121
-118 121 123
-124 -118
-124 121
118 -121 124
-125 -123
-125 -124
123 124 125
-126 -118
-126 -121
118 121 126
-127 -122
-127 -126
122 126 127
-128 -24
-128 25
24 -25 128
-129 24
-129 -25
-24 25 129
-130 -128
-130 -129
128 129 130
-131 24
-131 25
-24 -25 131
-132 127
-132 -130
-127 130 132
-133 -127
-133 130
127 -130 133
-134 -132
-134 -133
132 133 134
-135 -127
-135 -130
127 130 135
-136 -131
-136 -135
131 135 136
-137 -25
-137 26
25 -26 137
-138 25
-138 -26
-25 26 138
-139 -137
-139 -138
137 138 139
-140 25
-140 26
-25 -26 140
-141 136
-141 -139
-136 139 141
-142 -136
-142 139
136 -139 142
-143 -141
-143 -142
141 142 143
-144 -136
-144 -139
136 139 144
-145 -140
-145 -144
140 144 145
-146 -26
-146 27
26 -27 146
-147 26
-147 -27
-26 27 147
-148 -146
-148 -147
146 147 148
-149 26
-149 27
-26 -27 149
-150 145
-150 -148
-145 148 150
-151 -145
-151 148
145 -148 151
-152 -150
-152 -151
150 151 152
-153 -145
-153 -148
145 148 153
-154 -149
-154 -153
149 153 154
-155 -27
-155 28
27 -28 155
-156 27
-156 -28
-27 28 156
-157 -155
-157 -156
155 156 157
-158 27
-158 28
-27 -28 158
-159 154
-159 -157
-154 157 159
-160 -154
-160 157
154 -157 160
-161 -159
-161 -160
159 160 161
-162 -154
-162 -157
154 157 162
-163 -158
-163 -162
158 162 163
-164 -28
-164 29
28 -29 164
-165 28
-165 -29
-28 29 165
-166 -164
-166 -165
164 165 166
-167 28
-167 29
-28 -29 167
-168 163
-168 -166
-163 166 168
-169 -163
-169 166
163 -166 169
-170 -168
-170 -169
168 169 170
-171 -163
-171 -166
163 166 171
-172 -167
-172 -171
167 171 172
-173 -29
-173 30
29 -30 173
-174 29
-174 -30
-29 30 174
-175 -173
-175 -174
173 174 175
-176 29
-176 30
-29 -30 176
-177 172
-177 -175
-172 175 177
-178 -172
-178 175
172 -175 178
-179 -177
-179 -178
177 178 179
-180 -172
-180 -175
172 175 180
-181 -176
-181 -180
176 180 181
-182 -30
-182 31
30 -31 182
-183 30
-183 -31
-30 31 183
-184 -182
-184 -183
182 183 184
-185 30
-185 31
-30 -31 185
-186 181
-186 -184
-181 184 186
-187 -181
-187 184
181 -184 187
-188 -186
-188 -187
186 187 188
-189 -181
-189 -184
181 184 189
-190 -185
-190 -189
185 189 190
-191 -31
-191 32
31 -32 191
-192 31
-192 -32
-31 32 192
-193 -191
-193 -192
191 192 193
-194 31
-194 32
-31 -32 194
-195 190
-195 -193
-190 193 195
-196 -190
-196 193
190 -193 196
-197 -195
-197 -196
195 196 197
-198 -190
-198 -193
190 193 198
-199 -194
-199 -198
194 198 199
-200 -32
-200 33
32 -33 200
-201 32
-201 -33
-32 33 201
-202 -200
-202 -201
200 201 202
-203 32
-203 33
-32 -33 203
-204 199
-204 -202
-199 202 204
-205 -199
-205 202
199 -202 205
-206 -204
-206 -205
204 205 206
-207 -199
-207 -202
199 202 207
-208 -203
-208 -207
203 207 208
-209 -33
-209 34
33 -34 209
-210 33
-210 -34
-33 34 210
-211 -209
-211 -210
209 210 211
-212 33
-212 34
-33 -34 212
-213 208
-213 -211
-208 211 213
-214 -208
-214 211
208 -211 214
-215 -213
-215 -214
213 214 215
-216 -208
-216 -211
208 211 216
-217 -212
-217 -216
212 216 217
-218 -34
-218 35
34 -35 218
-219 34
-219 -35
-34 35 219
-220 -218
-220 -219
218 219 220
-221 34
-221 35
-34 -35 221
-222 217
-222 -220
-217 220 222
-223 -217
-223 220
217 -220 223
-224 -222
-224 -223
222 223 224
-225 -217
-225 -220
217 220 225
-226 -221
-226 -225
221 225 226
-227 -35
-227 36
35 -36 227
-228 35
-228 -36
-35 36 228
-229 -227
-229 -228
227 228 229
-230 35
-230 36
-35 -36 230
-231 226
-231 -229
-226 229 231
-232 -226
-232 229
226 -229 232
-233 -231
-233 -232
231 232 233
-234 -226
-234 -229
226 229 234
-235 -230
-235 -234
230 234 235
-236 -36
-236 37
36 -37 236
-237 36
-237 -37
-36 37 237
-238 -236
-238 -237
236 237 238
-239 36
-239 37
-36 -37 239
-240 235
-240 -238
-235 238 240
-241 -235
-241 238
235 -238 241
-242 -240
-242 -241
240 241 242
-243 -235
-243 -238
235 238 243
-244 -239
-244 -243
239 243 244
-245 -37
-245 38
37 -38 245
-246 37
-246 -38
-37 38 246
-247 -245
-247 -246
245 246 247
-248 37
-248 38
-37 -38 248
-249 244
-249 -247
-244 247 249
-250 -244
-250 247
244 -247 250
-251 -249
-251 -250
249 250 251
-252 -244
-252 -247
244 247 252
-253 -248
-253 -252
248 252 253
-254 -38
-254 39
38 -39 254
-255 38
-255 -39
-38 39 255
-256 -254
-256 -255
254 255 256
-257 38
-257 39
-38 -39 257
-258 253
-258 -256
-253 256 258
-259 -253
-259 256
253 -256 259
-260 -258
-260 -259
258 259 260
-261 -253
-261 -256
253 256 261
-262 -257
-262 -261
257 261 262
-263 -39
-263 40
39 -40 263
-264 39
-264 -40
-39 40 264
-265 -263
-265 -264
263 264 265
-266 39
-266 40
-39 -40 266
-267 262
-267 -265
-262 265 267
-268 -262
-268 265
262 -265 268
-269 -267
-269 -268
267 268 269
-270 -262
-270 -265
262 265 270
-271 -266
-271 -270
266 270 271
-272 -40
-272 41
40 -41 272
-273 40
-273 -41
-40 41 273
-274 -272
-274 -273
272 273 274
-275 40
-275 41
-40 -41 275
-276 271
-276 -274
-271 274 276
-277 -271
-277 274
271 -274 277
-278 -276
-278 -277
276 277 278
-279 -271
-279 -274
271 274 279
-280 -275
-280 -279
275 279 280
-281 17
-281 -71
-17 71 281
-282 -17
-282 19
17 -19 282
-283 -281
-283 -282
281 282 283
-284 17
-284 -80
-17 80 284
-285 -17
-285 20
17 -20 285
-286 -284
-286 -285
284 285 286
-287 17
-287 -89
-17 89 287
-288 -17
-288 21
17 -21 288
-289 -287
-289 -288
287 288 289
-290 17
-290 -98
-17 98 290
-291 -17
-291 22
17 -22 291
-292 -290
-292 -291
290 291 292
-293 17
-293 -107
-17 107 293
-294 -17
-294 23
17 -23 294
-295 -293
-295 -294
293 294 295
-296 17
-296 -116
-17 116 296
-297 -17
-297 24
17 -24 297
-298 -296
-298 -297
296 297 298
-299 17
-299 -125
-17 125 299
-300 -17
-300 25
17 -25 300
-301 -299
-301 -300
299 300 301
-302 17
-302 -134
-17 134 302
-303 -17
-303 26
17 -26 303
-304 -302
-304 -303
302 303 304
-305 17
-305 -143
-17 143 305
-306 -17
-306 27
17 -27 306
-307 -305
-307 -306
305 306 307
-308 17
-308 -152
-17 152 308
-309 -17
-309 28
17 -28 309
-310 -308
-310 -309
308 309 310
-311 17
-311 -161
-17 161 311
-312 -17
-312 29
17 -29 312
-313 -311
-313 -312
311 312 313
-314 17
-314 -170
-17 170 314
-315 -17
-315 30
17 -30 315
-316 -314
-316 -315
314 315 316
-317 17
-317 -179
-17 179 317
-318 -17
-318 31
17 -31 318
-319 -317
-319 -318
317 318 319
-320 17
-320 -188
-17 188 320
-321 -17
-321 32
17 -32 321
-322 -320
-322 -321
320 321 322
-323 17
-323 -197
-17 197 323
-324 -17
-324 33
17 -33 324
-325 -323
-325 -324
323 324 325
-326 17
-326 -206
-17 206 326
-327 -17
-327 34
17 -34 327
-328 -326
-328 -327
326 327 328
-329 17
-329 -215
-17 215 329
-330 -17
-330 35
17 -35 330
-331 -329
-331 -330
329 330 331
-332 17
-332 -224
-17 224 332
-333 -17
-333 36
17 -36 333
-334 -332
-334 -333
332 333 334
-335 17
-335 -233
-17 233 335
-336 -17
-336 37
17 -37 336
-337 -335
-337 -336
335 336 337
-338 17
-338 -242
-17 242 338
-339 -17
-339 38
17 -38 339
-340 -338
-340 -339
338 339 340
-341 17
-341 -251
-17 251 341
-342 -17
-342 39
17 -39 342
-343 -341
-343 -342
341 342 343
-344 17
-344 -260
-17 260 344
-345 -17
-345 40
17 -40 345
-346 -344
-346 -345
344 345 346
-347 17
-347 -269
-17 269 347
-348 -17
-348 41
17 -41 348
-349 -347
-349 -348
347 348 349
-350 17
-350 -278
-17 278 350
-351 1
-351 64
-1 -64 351
-352 -64
-352 65
64 -65 352
-353 -351
-353 -352
351 352 353
-354 2
-354 64
-2 -64 354
-355 -64
-355 -283
64 283 355
-356 -354
-356 -355
354 355 356
-357 3
-357 64
-3 -64 357
-358 -64
-358 -286
64 286 358
-359 -357
-359 -358
357 358 359
-360 4
-360 64
-4 -64 360
-361 -64
-361 -289
64 289 361
-362 -360
-362 -361
360 361 362
-363 5
-363 64
-5 -64 363
-364 -64
-364 -292
64 292 364
-365 -363
-365 -364
363 364 365
-366 6
-366 64
-6 -64 366
-367 -64
-367 -295
64 295 367
-368 -366
-368 -367
366 367 368
-369 7
-369 64
-7 -64 369
-370 -64
-370 -298
64 298 370
-371 -369
-371 -370
369 370 371
-372 8
-372 64
-8 -64 372
-373 -64
-373 -301
64 301 373
-374 -372
-374 -373
372 373 374
-375 9
-375 64
-9 -64 375
-376 -64
-376 -304
64 304 376
-377 -375
-377 -376
375 376 377
-378 10
-378 64
-10 -64 378
-379 -64
-379 -307
64 307 379
-380 -378
-380 -379
378 379 380
-381 11
-381 64
-11 -64 381
-382 -64
-382 -310
64 310 382
-383 -381
-383 -382
381 382 383
-384 12
-384 64
-12 -64 384
-385 -64
-385 -313
64 313 385
-386 -384
-386 -385
384 385 386
-387 13
-387 64
-13 -64 387
-388 -64
-388 -316
64 316 388
-389 -387
-389 -388
387 388 389
-390 14
-390 64
-14 -64 390
-391 -64
-391 -319
64 319 391
-392 -390
-392 -391
390 391 392
-393 15
-393 64
-15 -64 393
-394 -64
-394 -322
64 322 394
-395 -393
-395 -394
393 394 395
-396 16
-396 64
-16 -64 396
-397 -64
-397 -325
64 325 397
-398 -396
-398 -397
396 397 398
-399 -64
-399 -328
64 328 399
-400 -64
-400 -331
64 331 400
-401 -64
-401 -334
64 334 401
-402 -64
-402 -337
64 337 402
-403 -64
-403 -340
64 340 403
-404 -64
-404 -343
64 343 404
-405 -64
-405 -346
64 346 405
-406 -64
-406 -349
64 349 406
-407 -64
-407 350
64 -350 407
-408 -41
-408 280
41 -280 408
-409 17
-409 -408
-17 408 409
409
